20 41
3 15 18
3 5 14 15 18
7 10 13 15 16 17
0 1 4 7 17 18
3 13 18
1 10 11 18
7 9
2 3 6 10
9 11 12 13 16
6 8
2 5 7 14 18
5 8 16 18
8 15 16
2 4 8 16 17
1 10
0 1 2 12 16
2 8 11 12 13 15
2 3 13 18
0 1 3 4 5 10 11 17

